proyfinal/src/viki/013/andrea/andrea-localstore/experimentInOfficeAgust.take6/worker_1/52c0e781-c982-4f88-a461-3bbad82e97fc.als.cnf.out
Reading from standard input... Use '--help' for help.
============================[ Problem Statistics ]=============================
|                                                                             |
|  Number of variables:         87638                                         |
|  Number of clauses:          161767                                         |
|  Parse time:                   0.03 s                                       |
|                                                                             |
============================[ Search Statistics ]==============================
| Conflicts |          ORIGINAL         |          LEARNT          | Progress |
|           |    Vars  Clauses Literals |    Limit  Clauses Lit/Cl |          |
===============================================================================
|       100 |   63779   110623   275233 |    40561      100     13 | 27.224 % |
|       250 |   63778   110579   275143 |    44617      249     51 | 27.226 % |
|       475 |   63778   110579   275143 |    49079      474     40 | 27.226 % |
|       812 |   63778   110579   275143 |    53987      811     37 | 27.226 % |
|      1318 |   63778   110579   275143 |    59386     1317     53 | 27.226 % |
|      2077 |   63778   110579   275143 |    65325     2076     63 | 27.226 % |
|      3216 |   63778   110579   275143 |    71857     3215     65 | 27.226 % |
|      4924 |   63742   110435   274804 |    79043     4921     62 | 27.267 % |
|      7486 |   63616   109937   273486 |    86947     7075     70 | 27.411 % |
|     11330 |   58783    93115   232369 |    95642    10020     67 | 32.925 % |
===============================================================================
restarts              : 63
conflicts             : 16887          (9144 /sec)
decisions             : 54118          (0.00 % random) (29304 /sec)
propagations          : 19567150       (10595314 /sec)
conflict literals     : 1059287        (48.12 % deleted)
Memory used           : 31.17 MB
CPU time              : 1.84677 s

INDETERMINATE
